550
331.0 390.0 
331.0 390.0 
398.0 283.0 
479.0 436.0 
460.0 351.0 
317.0 275.0 
379.0 343.0 
501.0 433.0 
221.0 146.0 
424.0 380.0 
221.0 146.0 
501.0 433.0 
424.0 380.0 
260.0 314.0 
273.0 127.0 
422.0 104.0 
323.0 58.0 
585.0 277.0 
249.0 30.0 
331.0 390.0 
331.0 390.0 
460.0 351.0 
398.0 283.0 
479.0 436.0 
379.0 343.0 
317.0 275.0 
221.0 146.0 
501.0 433.0 
424.0 380.0 
424.0 380.0 
221.0 146.0 
220.0 221.0 
424.0 380.0 
501.0 433.0 
212.0 109.0 
199.0 99.0 
286.0 137.0 
273.0 127.0 
422.0 104.0 
323.0 58.0 
585.0 277.0 
331.0 390.0 
331.0 390.0 
398.0 283.0 
460.0 351.0 
479.0 436.0 
317.0 275.0 
379.0 343.0 
501.0 433.0 
424.0 380.0 
221.0 146.0 
424.0 380.0 
221.0 146.0 
424.0 380.0 
501.0 433.0 
501.0 433.0 
424.0 380.0 
522.0 385.0 
524.0 336.0 
323.0 58.0 
422.0 104.0 
585.0 277.0 
331.0 390.0 
331.0 390.0 
398.0 283.0 
460.0 351.0 
317.0 275.0 
379.0 343.0 
479.0 436.0 
501.0 433.0 
424.0 380.0 
424.0 380.0 
221.0 146.0 
221.0 146.0 
501.0 433.0 
220.0 221.0 
199.0 99.0 
422.0 104.0 
585.0 277.0 
323.0 58.0 
249.0 30.0 
331.0 390.0 
331.0 390.0 
398.0 283.0 
460.0 351.0 
317.0 275.0 
379.0 343.0 
479.0 436.0 
479.0 436.0 
501.0 433.0 
424.0 380.0 
221.0 146.0 
424.0 380.0 
501.0 433.0 
221.0 146.0 
501.0 433.0 
424.0 380.0 
212.0 109.0 
199.0 99.0 
273.0 127.0 
323.0 58.0 
422.0 104.0 
585.0 277.0 
331.0 390.0 
331.0 390.0 
460.0 351.0 
398.0 283.0 
479.0 436.0 
379.0 343.0 
317.0 275.0 
501.0 433.0 
424.0 380.0 
221.0 146.0 
424.0 380.0 
221.0 146.0 
501.0 433.0 
501.0 433.0 
424.0 380.0 
522.0 385.0 
445.0 332.0 
323.0 58.0 
422.0 104.0 
585.0 277.0 
199.0 99.0 
331.0 390.0 
331.0 390.0 
460.0 351.0 
398.0 283.0 
479.0 436.0 
317.0 275.0 
501.0 433.0 
424.0 380.0 
221.0 146.0 
221.0 146.0 
239.0 214.0 
424.0 380.0 
501.0 433.0 
501.0 433.0 
199.0 99.0 
273.0 127.0 
286.0 137.0 
585.0 277.0 
422.0 104.0 
323.0 58.0 
249.0 30.0 
331.0 390.0 
331.0 390.0 
460.0 351.0 
398.0 283.0 
317.0 275.0 
479.0 436.0 
501.0 433.0 
424.0 380.0 
221.0 146.0 
221.0 146.0 
424.0 380.0 
501.0 433.0 
501.0 433.0 
522.0 385.0 
273.0 127.0 
422.0 104.0 
585.0 277.0 
323.0 58.0 
540.0 347.0 
331.0 390.0 
331.0 390.0 
460.0 351.0 
398.0 283.0 
479.0 436.0 
317.0 275.0 
379.0 343.0 
501.0 433.0 
424.0 380.0 
221.0 146.0 
424.0 380.0 
501.0 433.0 
221.0 146.0 
424.0 380.0 
501.0 433.0 
220.0 221.0 
522.0 385.0 
323.0 58.0 
422.0 104.0 
585.0 277.0 
273.0 127.0 
540.0 347.0 
331.0 390.0 
331.0 390.0 
460.0 351.0 
398.0 283.0 
479.0 436.0 
317.0 275.0 
379.0 343.0 
501.0 433.0 
221.0 146.0 
424.0 380.0 
424.0 380.0 
221.0 146.0 
501.0 433.0 
501.0 433.0 
424.0 380.0 
273.0 127.0 
199.0 99.0 
585.0 277.0 
422.0 104.0 
323.0 58.0 
331.0 390.0 
331.0 390.0 
398.0 283.0 
317.0 275.0 
460.0 351.0 
501.0 433.0 
239.0 214.0 
220.0 221.0 
221.0 146.0 
501.0 433.0 
424.0 380.0 
221.0 146.0 
221.0 146.0 
221.0 146.0 
501.0 433.0 
221.0 146.0 
424.0 380.0 
522.0 385.0 
260.0 166.0 
522.0 385.0 
540.0 347.0 
445.0 332.0 
273.0 127.0 
170.0 26.0 
273.0 127.0 
199.0 99.0 
249.0 30.0 
249.0 30.0 
170.0 26.0 
323.0 58.0 
422.0 104.0 
585.0 277.0 
331.0 390.0 
331.0 390.0 
460.0 351.0 
398.0 283.0 
317.0 275.0 
221.0 146.0 
221.0 146.0 
501.0 433.0 
220.0 221.0 
260.0 314.0 
239.0 214.0 
501.0 433.0 
424.0 380.0 
424.0 380.0 
501.0 433.0 
221.0 146.0 
221.0 146.0 
424.0 380.0 
522.0 385.0 
522.0 385.0 
522.0 385.0 
522.0 385.0 
540.0 347.0 
170.0 26.0 
273.0 127.0 
273.0 127.0 
199.0 99.0 
249.0 30.0 
249.0 30.0 
585.0 277.0 
422.0 104.0 
323.0 58.0 
170.0 26.0 
331.0 390.0 
331.0 390.0 
398.0 283.0 
479.0 436.0 
479.0 436.0 
479.0 436.0 
479.0 436.0 
317.0 275.0 
460.0 351.0 
221.0 146.0 
501.0 433.0 
424.0 380.0 
501.0 433.0 
424.0 380.0 
221.0 146.0 
239.0 214.0 
260.0 314.0 
220.0 221.0 
424.0 380.0 
424.0 380.0 
501.0 433.0 
501.0 433.0 
221.0 146.0 
221.0 146.0 
424.0 380.0 
522.0 385.0 
522.0 385.0 
260.0 166.0 
522.0 385.0 
540.0 347.0 
170.0 26.0 
273.0 127.0 
273.0 127.0 
199.0 99.0 
170.0 26.0 
249.0 30.0 
249.0 30.0 
422.0 104.0 
323.0 58.0 
585.0 277.0 
331.0 390.0 
331.0 390.0 
398.0 283.0 
479.0 436.0 
460.0 351.0 
317.0 275.0 
479.0 436.0 
220.0 221.0 
239.0 214.0 
501.0 433.0 
221.0 146.0 
221.0 146.0 
221.0 146.0 
501.0 433.0 
424.0 380.0 
501.0 433.0 
424.0 380.0 
424.0 380.0 
424.0 380.0 
501.0 433.0 
221.0 146.0 
221.0 146.0 
221.0 146.0 
522.0 385.0 
260.0 166.0 
522.0 385.0 
522.0 385.0 
522.0 385.0 
522.0 385.0 
540.0 347.0 
445.0 332.0 
273.0 127.0 
170.0 26.0 
273.0 127.0 
199.0 99.0 
323.0 58.0 
249.0 30.0 
422.0 104.0 
585.0 277.0 
249.0 30.0 
170.0 26.0 
331.0 390.0 
331.0 390.0 
398.0 283.0 
460.0 351.0 
317.0 275.0 
221.0 146.0 
221.0 146.0 
221.0 146.0 
221.0 146.0 
239.0 214.0 
220.0 221.0 
501.0 433.0 
424.0 380.0 
501.0 433.0 
424.0 380.0 
424.0 380.0 
501.0 433.0 
501.0 433.0 
424.0 380.0 
221.0 146.0 
472.0 360.0 
522.0 385.0 
260.0 166.0 
522.0 385.0 
522.0 385.0 
540.0 347.0 
445.0 332.0 
170.0 26.0 
273.0 127.0 
199.0 99.0 
273.0 127.0 
249.0 30.0 
249.0 30.0 
323.0 58.0 
422.0 104.0 
585.0 277.0 
170.0 26.0 
331.0 390.0 
331.0 390.0 
460.0 351.0 
398.0 283.0 
317.0 275.0 
220.0 221.0 
239.0 214.0 
501.0 433.0 
501.0 433.0 
501.0 433.0 
221.0 146.0 
424.0 380.0 
501.0 433.0 
424.0 380.0 
424.0 380.0 
221.0 146.0 
522.0 385.0 
522.0 385.0 
260.0 166.0 
540.0 347.0 
445.0 332.0 
273.0 127.0 
170.0 26.0 
273.0 127.0 
199.0 99.0 
323.0 58.0 
249.0 30.0 
249.0 30.0 
422.0 104.0 
585.0 277.0 
331.0 390.0 
398.0 283.0 
317.0 275.0 
460.0 351.0 
221.0 146.0 
221.0 146.0 
221.0 146.0 
501.0 433.0 
424.0 380.0 
424.0 380.0 
239.0 214.0 
501.0 433.0 
501.0 433.0 
424.0 380.0 
221.0 146.0 
221.0 146.0 
501.0 433.0 
221.0 146.0 
522.0 385.0 
540.0 347.0 
445.0 332.0 
170.0 26.0 
273.0 127.0 
199.0 99.0 
273.0 127.0 
249.0 30.0 
249.0 30.0 
170.0 26.0 
585.0 277.0 
422.0 104.0 
323.0 58.0 
331.0 390.0 
331.0 390.0 
398.0 283.0 
460.0 351.0 
317.0 275.0 
221.0 146.0 
501.0 433.0 
501.0 433.0 
239.0 214.0 
220.0 221.0 
221.0 146.0 
221.0 146.0 
424.0 380.0 
424.0 380.0 
501.0 433.0 
522.0 385.0 
522.0 385.0 
260.0 166.0 
522.0 385.0 
445.0 332.0 
540.0 347.0 
170.0 26.0 
273.0 127.0 
199.0 99.0 
273.0 127.0 
323.0 58.0 
422.0 104.0 
249.0 30.0 
249.0 30.0 
170.0 26.0 
585.0 277.0 
331.0 390.0 
331.0 390.0 
317.0 275.0 
398.0 283.0 
460.0 351.0 
220.0 221.0 
260.0 314.0 
221.0 146.0 
221.0 146.0 
221.0 146.0 
221.0 146.0 
501.0 433.0 
501.0 433.0 
501.0 433.0 
501.0 433.0 
424.0 380.0 
424.0 380.0 
239.0 214.0 
472.0 360.0 
522.0 385.0 
522.0 385.0 
522.0 385.0 
445.0 332.0 
540.0 347.0 
273.0 127.0 
170.0 26.0 
273.0 127.0 
199.0 99.0 
249.0 30.0 
323.0 58.0 
422.0 104.0 
585.0 277.0 
249.0 30.0 
170.0 26.0 
331.0 390.0 
331.0 390.0 
398.0 283.0 
479.0 436.0 
317.0 275.0 
479.0 436.0 
479.0 436.0 
460.0 351.0 
221.0 146.0 
501.0 433.0 
501.0 433.0 
221.0 146.0 
220.0 221.0 
501.0 433.0 
239.0 214.0 
221.0 146.0 
424.0 380.0 
424.0 380.0 
424.0 380.0 
501.0 433.0 
424.0 380.0 
522.0 385.0 
522.0 385.0 
522.0 385.0 
540.0 347.0 
170.0 26.0 
273.0 127.0 
199.0 99.0 
273.0 127.0 
323.0 58.0 
249.0 30.0 
249.0 30.0 
422.0 104.0 
170.0 26.0 
585.0 277.0 

559 418 160 420 424 164 423 419 421 559 
559 160 420 424 164 423 419 421 418 559 
559 418 422 424 164 138 160 423 559 
559 418 421 419 423 138 160 420 164 424 422 559 
559 418 422 424 164 160 420 138 421 559 
559 422 424 164 138 160 423 559 
559 422 424 164 160 420 138 421 559 
559 418 160 420 424 164 138 419 421 413 559 
559 418 413 421 420 559 
559 418 138 160 420 424 164 419 421 559 
559 418 413 421 420 559 
559 413 421 419 160 420 138 164 424 418 559 
559 418 420 424 164 138 160 419 421 559 
559 413 421 419 164 424 418 559 
559 418 111 20 424 559 
559 418 417 20 111 160 559 
559 418 417 111 20 559 
559 418 111 20 417 424 164 138 160 559 
559 417 111 418 559 
559 418 160 420 424 164 423 419 421 559 
559 160 420 424 164 423 419 421 418 559 
559 418 422 424 164 160 420 138 421 559 
559 418 422 424 164 138 160 423 559 
559 418 421 419 423 138 160 420 164 424 422 559 
559 422 424 164 160 420 138 421 559 
559 422 424 164 138 160 423 559 
559 418 413 421 420 559 
559 418 160 420 424 164 138 419 421 413 559 
559 418 138 160 420 424 164 419 421 559 
559 418 420 424 164 138 160 419 421 559 
559 418 413 421 420 559 
559 413 421 419 424 418 559 
559 418 424 164 160 420 138 419 421 559 
559 413 421 419 160 420 138 164 424 418 559 
559 418 111 1 424 559 
559 418 111 424 559 
559 418 111 20 1 424 559 
559 418 111 20 424 559 
559 418 417 20 111 160 559 
559 418 417 111 20 559 
559 418 111 20 417 424 164 138 160 559 
559 418 160 420 424 164 423 419 421 559 
559 160 420 424 164 423 419 421 418 559 
559 418 422 424 164 138 160 423 559 
559 418 422 424 164 160 420 138 421 559 
559 418 421 419 423 138 160 420 164 424 422 559 
559 422 424 164 138 160 423 559 
559 422 424 164 160 420 138 421 559 
559 418 160 420 424 164 138 419 421 413 559 
559 418 420 424 164 138 160 419 421 559 
559 418 413 421 420 559 
559 418 138 160 420 424 164 419 421 559 
559 418 413 421 420 559 
559 418 424 164 160 420 138 419 421 559 
559 160 420 424 164 138 419 421 413 418 559 
559 413 421 419 160 420 138 164 424 418 559 
559 418 424 164 138 160 420 419 421 559 
559 413 422 424 164 138 160 420 418 559 
559 418 160 420 138 164 424 422 417 559 
559 418 417 111 20 559 
559 418 417 20 111 160 559 
559 418 111 20 417 424 164 138 160 559 
559 418 160 420 424 164 423 419 421 559 
559 160 420 424 164 423 419 421 418 559 
559 418 422 424 164 138 160 423 559 
559 418 422 424 164 160 420 138 421 559 
559 422 424 164 138 160 423 559 
559 422 424 164 160 420 138 421 559 
559 418 421 419 423 138 160 420 164 424 422 559 
559 418 160 420 424 164 138 419 421 413 559 
559 418 138 160 420 424 164 419 421 559 
559 418 420 424 164 138 160 419 421 559 
559 418 413 421 420 559 
559 418 413 421 420 559 
559 413 421 419 160 420 138 164 424 418 559 
559 413 421 419 424 418 559 
559 418 111 424 559 
559 418 417 20 111 160 559 
559 418 111 20 417 424 164 138 160 559 
559 418 417 111 20 559 
559 417 111 418 559 
559 418 160 420 424 164 423 419 421 559 
559 160 420 424 164 423 419 421 418 559 
559 418 422 424 164 138 160 423 559 
559 418 422 424 164 160 420 138 421 559 
559 422 424 164 138 160 423 559 
559 422 424 164 160 420 138 421 559 
559 421 419 423 160 420 138 164 424 422 418 559 
559 418 421 419 423 138 160 420 164 424 422 559 
559 418 160 420 424 164 138 419 421 413 559 
559 418 138 160 420 424 164 419 421 559 
559 418 413 421 420 559 
559 418 420 424 164 138 160 419 421 559 
559 413 421 419 160 420 138 164 424 418 559 
559 418 413 421 420 559 
559 160 420 424 164 138 419 421 413 418 559 
559 418 424 164 138 160 420 419 421 559 
559 418 111 1 424 559 
559 418 111 424 559 
559 418 111 20 424 559 
559 418 417 111 20 559 
559 418 417 20 111 160 559 
559 418 111 20 417 424 164 138 160 559 
559 418 160 420 424 164 423 419 421 559 
559 160 420 424 164 423 419 421 418 559 
559 418 422 424 164 160 420 138 421 559 
559 418 422 424 164 138 160 423 559 
559 418 421 419 423 138 160 420 164 424 422 559 
559 422 424 164 160 420 138 421 559 
559 422 424 164 138 160 423 559 
559 418 160 420 424 164 138 419 421 413 559 
559 418 420 424 164 138 160 419 421 559 
559 418 413 421 420 559 
559 418 138 160 420 424 164 419 421 559 
559 418 413 421 420 559 
559 160 420 424 164 138 419 421 413 418 559 
559 413 421 419 160 420 138 164 424 418 559 
559 418 424 164 160 420 138 419 421 559 
559 413 422 424 164 138 160 420 418 559 
559 418 422 424 164 138 160 420 559 
559 418 417 111 20 559 
559 418 417 20 111 160 559 
559 418 111 20 417 424 164 138 160 559 
559 418 111 424 559 
559 418 160 420 424 164 423 419 421 559 
559 160 420 424 164 423 419 421 418 559 
559 418 422 424 164 160 420 138 421 559 
559 418 422 424 164 138 160 423 559 
559 418 421 419 423 138 160 420 164 424 422 559 
559 422 424 164 138 160 423 559 
559 418 160 420 424 164 138 419 421 413 559 
559 418 420 424 164 138 160 419 421 559 
559 418 413 421 420 559 
559 418 413 421 420 559 
559 413 421 419 420 418 559 
559 418 138 160 420 424 164 419 421 559 
559 413 421 419 160 420 138 164 424 418 559 
559 160 420 424 164 138 419 421 413 418 559 
559 418 111 424 559 
559 418 111 20 424 559 
559 418 111 20 1 424 559 
559 418 111 20 417 424 164 138 160 559 
559 418 417 20 111 160 559 
559 418 417 111 20 559 
559 417 111 418 559 
559 418 160 420 424 164 423 419 421 559 
559 160 420 424 164 423 419 421 418 559 
559 418 422 424 164 160 420 138 421 559 
559 418 422 424 164 138 160 423 559 
559 422 424 164 138 160 423 559 
559 418 421 419 423 138 160 420 164 424 422 559 
559 418 160 420 424 164 138 419 421 413 559 
559 418 138 160 420 424 164 419 421 559 
559 418 413 421 420 559 
559 418 413 421 420 559 
559 418 420 424 164 138 160 419 421 559 
559 160 420 424 164 138 419 421 413 418 559 
559 413 421 419 160 420 138 164 424 418 559 
559 413 422 424 164 138 160 420 418 559 
559 418 111 20 424 559 
559 418 417 20 111 160 559 
559 418 111 20 417 424 164 138 160 559 
559 418 417 111 20 559 
559 513 422 424 164 138 160 420 418 559 
559 418 160 420 424 164 423 419 421 559 
559 160 420 424 164 423 419 421 418 559 
559 418 422 424 164 160 420 138 421 559 
559 418 422 424 164 138 160 423 559 
559 418 421 419 423 138 160 420 164 424 422 559 
559 422 424 164 138 160 423 559 
559 422 424 164 160 420 138 421 559 
559 418 160 420 424 164 138 419 421 413 559 
559 418 138 160 420 424 164 419 421 559 
559 418 413 421 420 559 
559 418 420 424 164 138 160 419 421 559 
559 413 421 419 160 420 138 164 424 418 559 
559 418 413 421 420 559 
559 418 424 164 138 160 420 419 421 559 
559 160 420 424 164 138 419 421 413 418 559 
559 413 421 419 424 418 559 
559 413 422 424 164 138 160 420 418 559 
559 418 417 111 20 559 
559 418 417 20 111 160 559 
559 418 111 20 417 424 164 138 160 559 
559 20 111 424 418 559 
559 513 422 424 164 138 160 420 418 559 
559 418 160 420 424 164 423 419 421 559 
559 160 420 424 164 423 419 421 418 559 
559 418 422 424 164 160 420 138 421 559 
559 418 422 424 164 138 160 423 559 
559 418 421 419 423 138 160 420 164 424 422 559 
559 422 424 164 138 160 423 559 
559 422 424 164 160 420 138 421 559 
559 418 160 420 424 164 138 419 421 413 559 
559 418 413 421 420 559 
559 418 138 160 420 424 164 419 421 559 
559 418 420 424 164 138 160 419 421 559 
559 418 413 421 420 559 
559 160 420 424 164 138 419 421 413 418 559 
559 413 421 419 160 420 138 164 424 418 559 
559 418 424 164 160 420 138 419 421 559 
559 418 111 20 424 559 
559 418 111 424 559 
559 418 111 20 417 424 164 138 160 559 
559 418 417 20 111 160 559 
559 418 417 111 20 559 
559 160 420 424 164 423 419 421 418 559 
559 418 160 420 424 164 423 419 421 559 
559 418 422 424 164 138 160 423 559 
559 422 424 164 138 160 423 559 
559 418 422 424 164 160 420 138 421 559 
559 160 420 424 164 138 419 421 413 418 559 
559 413 421 419 420 418 559 
559 413 421 419 424 418 559 
559 418 413 421 420 559 
559 418 160 420 424 164 138 419 421 413 559 
559 418 138 160 420 424 164 419 421 559 
559 418 413 421 420 559 
559 418 413 421 420 559 
559 418 413 421 420 559 
559 413 421 419 160 420 138 164 424 418 559 
559 418 413 421 420 559 
559 418 420 424 164 138 160 419 421 559 
559 413 422 424 164 138 160 420 418 559 
559 418 413 420 422 559 
559 420 418 422 424 164 138 160 413 559 
559 513 422 424 164 138 160 420 418 559 
559 418 422 424 164 138 160 420 559 
559 20 111 424 418 559 
559 111 418 559 
559 418 111 20 424 559 
559 418 111 424 559 
559 417 111 418 559 
559 417 111 418 559 
559 111 418 559 
559 418 417 111 20 559 
559 418 417 20 111 160 559 
559 418 111 20 417 424 164 138 160 559 
559 160 420 424 164 423 419 421 418 559 
559 418 160 420 424 164 423 419 421 559 
559 418 422 424 164 160 420 138 421 559 
559 418 422 424 164 138 160 423 559 
559 422 424 164 138 160 423 559 
559 418 413 421 420 559 
559 418 413 421 420 559 
559 160 420 424 164 138 419 421 413 418 559 
559 413 421 419 424 418 559 
559 413 421 419 164 424 418 559 
559 413 421 419 420 418 559 
559 418 160 420 424 164 138 419 421 413 559 
559 418 420 424 164 138 160 419 421 559 
559 418 138 160 420 424 164 419 421 559 
559 413 421 419 160 420 138 164 424 418 559 
559 418 413 421 420 559 
559 418 413 421 420 559 
559 420 424 164 138 160 419 421 418 559 
559 420 418 422 424 164 138 160 413 559 
559 413 422 424 164 138 160 420 418 559 
559 420 422 424 164 138 160 413 418 559 
559 413 418 422 424 164 138 160 420 559 
559 513 422 424 164 138 160 420 418 559 
559 111 418 559 
559 20 111 424 418 559 
559 418 111 20 424 559 
559 418 111 424 559 
559 417 111 418 559 
559 417 111 418 559 
559 418 111 20 417 424 164 138 160 559 
559 418 417 20 111 160 559 
559 418 417 111 20 559 
559 111 418 559 
559 418 160 420 424 164 423 419 421 559 
559 160 420 424 164 423 419 421 418 559 
559 418 422 424 164 138 160 423 559 
559 421 419 423 160 420 138 164 424 422 418 559 
559 421 419 423 164 138 160 420 424 422 418 559 
559 421 419 423 138 160 420 164 424 422 418 559 
559 418 421 419 423 138 160 420 164 424 422 559 
559 422 424 164 138 160 423 559 
559 418 422 424 164 160 420 138 421 559 
559 418 413 421 420 559 
559 160 420 424 164 138 419 421 413 418 559 
559 418 424 164 138 160 420 419 421 559 
559 418 160 420 424 164 138 419 421 413 559 
559 418 138 160 420 424 164 419 421 559 
559 418 413 421 420 559 
559 413 421 419 420 418 559 
559 413 421 419 164 424 418 559 
559 413 421 419 424 418 559 
559 138 160 420 424 164 419 421 418 559 
559 420 424 164 138 160 419 421 418 559 
559 413 421 419 160 420 138 164 424 418 559 
559 413 421 419 138 160 420 164 424 418 559 
559 418 413 421 420 559 
559 418 413 421 420 559 
559 418 420 424 164 138 160 419 421 559 
559 413 422 424 164 138 160 420 418 559 
559 420 422 424 164 138 160 413 418 559 
559 418 413 420 422 559 
559 420 418 422 424 164 138 160 413 559 
559 513 422 424 164 138 160 420 418 559 
559 111 418 559 
559 20 111 424 418 559 
559 418 111 20 424 559 
559 418 111 424 559 
559 111 418 559 
559 417 111 418 559 
559 417 111 418 559 
559 418 417 20 111 160 559 
559 418 417 111 20 559 
559 418 111 20 417 424 164 138 160 559 
559 160 420 424 164 423 419 421 418 559 
559 418 160 420 424 164 423 419 421 559 
559 418 422 424 164 138 160 423 559 
559 421 419 423 160 420 138 164 424 422 418 559 
559 418 422 424 164 160 420 138 421 559 
559 422 424 164 138 160 423 559 
559 421 419 423 164 138 160 420 424 422 418 559 
559 413 421 419 424 418 559 
559 413 421 419 420 418 559 
559 413 421 419 138 160 420 164 424 418 559 
559 418 413 421 420 559 
559 418 413 421 420 559 
559 418 413 421 420 559 
559 160 420 424 164 138 419 421 413 418 559 
559 420 424 164 138 160 419 421 418 559 
559 418 160 420 424 164 138 419 421 413 559 
559 418 424 164 138 160 420 419 421 559 
559 418 138 160 420 424 164 419 421 559 
559 418 420 424 164 138 160 419 421 559 
559 413 421 419 160 420 138 164 424 418 559 
559 418 413 421 420 559 
559 418 413 421 420 559 
559 418 413 421 420 559 
559 413 422 424 164 138 160 420 418 559 
559 418 413 420 422 559 
559 413 422 164 138 160 420 424 418 559 
559 413 418 422 424 164 138 160 420 559 
559 160 420 138 164 424 422 418 413 559 
559 420 418 422 424 164 138 160 413 559 
559 513 422 424 164 138 160 420 418 559 
559 418 422 424 164 138 160 420 559 
559 20 111 424 418 559 
559 111 418 559 
559 418 111 20 424 559 
559 418 111 424 559 
559 418 417 111 20 559 
559 417 111 418 559 
559 418 417 20 111 160 559 
559 418 111 20 417 424 164 138 160 559 
559 417 111 418 559 
559 111 418 559 
559 160 420 424 164 423 419 421 418 559 
559 418 160 420 424 164 423 419 421 559 
559 418 422 424 164 138 160 423 559 
559 418 422 424 164 160 420 138 421 559 
559 422 424 164 138 160 423 559 
559 418 413 421 420 559 
559 418 413 421 420 559 
559 418 413 421 420 559 
559 418 413 421 420 559 
559 413 421 419 420 418 559 
559 413 421 419 424 418 559 
559 160 420 424 164 138 419 421 413 418 559 
559 138 160 420 424 164 419 421 418 559 
559 418 160 420 424 164 138 419 421 413 559 
559 418 138 160 420 424 164 419 421 559 
559 418 420 424 164 138 160 419 421 559 
559 413 421 419 160 420 138 164 424 418 559 
559 413 421 419 138 160 420 164 424 418 559 
559 420 424 164 138 160 419 421 418 559 
559 418 413 421 420 559 
559 413 421 419 164 138 160 420 418 559 
559 413 422 424 164 138 160 420 418 559 
559 418 413 420 422 559 
559 420 418 422 424 164 138 160 413 559 
559 160 420 138 164 424 422 418 413 559 
559 513 422 424 164 138 160 420 418 559 
559 418 422 424 164 138 160 420 559 
559 111 418 559 
559 20 111 424 418 559 
559 418 111 424 559 
559 418 111 20 424 559 
559 417 111 418 559 
559 417 111 418 559 
559 418 417 111 20 559 
559 418 417 20 111 160 559 
559 418 111 20 417 424 164 138 160 559 
559 111 418 559 
559 418 160 420 424 164 423 419 421 559 
559 160 420 424 164 423 419 421 418 559 
559 418 422 424 164 160 420 138 421 559 
559 418 422 424 164 138 160 423 559 
559 422 424 164 138 160 423 559 
559 413 421 419 424 418 559 
559 413 421 419 420 418 559 
559 413 421 419 160 420 138 164 424 418 559 
559 413 421 419 138 160 420 164 424 418 559 
559 160 420 424 164 138 419 421 413 418 559 
559 418 413 421 420 559 
559 418 420 424 164 138 160 419 421 559 
559 418 160 420 424 164 138 419 421 413 559 
559 138 160 420 424 164 419 421 418 559 
559 420 424 164 138 160 419 421 418 559 
559 418 413 421 420 559 
559 413 422 424 164 138 160 420 418 559 
559 160 420 138 164 424 422 418 413 559 
559 418 413 420 422 559 
559 513 422 424 164 138 160 420 418 559 
559 418 422 424 164 138 160 420 559 
559 20 111 424 418 559 
559 111 418 559 
559 418 111 20 424 559 
559 418 111 424 559 
559 418 417 111 20 559 
559 417 111 418 559 
559 417 111 418 559 
559 418 417 20 111 160 559 
559 418 111 20 417 424 164 138 160 559 
559 160 420 424 164 423 419 421 418 559 
559 418 422 424 164 138 160 423 559 
559 422 424 164 138 160 423 559 
559 418 422 424 164 160 420 138 421 559 
559 418 413 421 420 559 
559 418 413 421 420 559 
559 418 413 421 420 559 
559 160 420 424 164 138 419 421 413 418 559 
559 138 160 420 424 164 419 421 418 559 
559 420 424 164 138 160 419 421 418 559 
559 413 421 419 420 418 559 
559 413 421 419 138 160 420 164 424 418 559 
559 418 160 420 424 164 138 419 421 413 559 
559 418 138 160 420 424 164 419 421 559 
559 418 413 421 420 559 
559 418 413 421 420 559 
559 413 421 419 160 420 138 164 424 418 559 
559 418 413 421 420 559 
559 413 422 424 164 138 160 420 418 559 
559 513 422 424 164 138 160 420 418 559 
559 418 422 424 164 138 160 420 559 
559 111 418 559 
559 20 111 424 418 559 
559 418 111 424 559 
559 418 111 20 424 559 
559 417 111 418 559 
559 417 111 418 559 
559 111 418 559 
559 418 111 20 417 424 164 138 160 559 
559 418 417 20 111 160 559 
559 418 417 111 20 559 
559 418 160 420 424 164 423 419 421 559 
559 160 420 424 164 423 419 421 418 559 
559 418 422 424 164 138 160 423 559 
559 418 422 424 164 160 420 138 421 559 
559 422 424 164 138 160 423 559 
559 418 413 421 420 559 
559 418 160 420 424 164 138 419 421 413 559 
559 160 420 424 164 138 419 421 413 418 559 
559 413 421 419 420 418 559 
559 413 421 419 424 418 559 
559 418 413 421 420 559 
559 418 413 421 420 559 
559 418 138 160 420 424 164 419 421 559 
559 420 424 164 138 160 419 421 418 559 
559 413 421 419 160 420 138 164 424 418 559 
559 413 422 424 164 138 160 420 418 559 
559 420 418 422 424 164 138 160 413 559 
559 418 413 420 422 559 
559 160 420 138 164 424 422 418 413 559 
559 418 422 424 164 138 160 420 559 
559 513 422 424 164 138 160 420 418 559 
559 111 418 559 
559 20 111 424 418 559 
559 418 111 424 559 
559 418 111 20 424 559 
559 418 417 111 20 559 
559 418 417 20 111 160 559 
559 417 111 418 559 
559 417 111 418 559 
559 111 418 559 
559 418 111 20 417 424 164 138 160 559 
559 160 420 424 164 423 419 421 418 559 
559 418 160 420 424 164 423 419 421 559 
559 422 424 164 138 160 423 559 
559 418 422 424 164 138 160 423 559 
559 418 422 424 164 160 420 138 421 559 
559 413 421 419 424 418 559 
559 413 421 419 164 424 418 559 
559 418 413 421 420 559 
559 418 413 421 420 559 
559 418 413 421 420 559 
559 418 413 421 420 559 
559 413 421 419 160 420 138 164 424 418 559 
559 413 421 419 138 160 420 164 424 418 559 
559 160 420 424 164 138 419 421 413 418 559 
559 418 160 420 424 164 138 419 421 413 559 
559 418 424 164 138 160 420 419 421 559 
559 418 420 424 164 138 160 419 421 559 
559 413 421 419 420 418 559 
559 413 421 419 164 138 160 420 418 559 
559 413 422 424 164 138 160 420 418 559 
559 413 422 164 138 160 420 424 418 559 
559 420 418 422 424 164 138 160 413 559 
559 418 422 424 164 138 160 420 559 
559 513 422 424 164 138 160 420 418 559 
559 20 111 424 418 559 
559 111 418 559 
559 418 111 20 424 559 
559 418 111 424 559 
559 417 111 418 559 
559 418 417 111 20 559 
559 418 417 20 111 160 559 
559 418 111 20 417 424 164 138 160 559 
559 417 111 418 559 
559 111 418 559 
559 160 420 424 164 423 419 421 418 559 
559 418 160 420 424 164 423 419 421 559 
559 418 422 424 164 138 160 423 559 
559 421 419 423 160 420 138 164 424 422 418 559 
559 422 424 164 138 160 423 559 
559 421 419 423 164 138 160 420 424 422 418 559 
559 421 419 423 138 160 420 164 424 422 418 559 
559 418 422 424 164 160 420 138 421 559 
559 418 413 421 420 559 
559 413 421 419 160 420 138 164 424 418 559 
559 413 421 419 138 160 420 164 424 418 559 
559 418 413 421 420 559 
559 413 421 419 424 418 559 
559 160 420 424 164 138 419 421 413 418 559 
559 413 421 419 420 418 559 
559 418 413 421 420 559 
559 138 160 420 424 164 419 421 418 559 
559 418 138 160 420 424 164 419 421 559 
559 418 420 424 164 138 160 419 421 559 
559 418 160 420 424 164 138 419 421 413 559 
559 418 424 164 138 160 420 419 421 559 
559 413 422 424 164 138 160 420 418 559 
559 420 418 422 424 164 138 160 413 559 
559 160 420 138 164 424 422 418 413 559 
559 513 422 424 164 138 160 420 418 559 
559 111 418 559 
559 418 111 20 424 559 
559 418 111 424 559 
559 20 111 424 418 559 
559 418 417 111 20 559 
559 417 111 418 559 
559 417 111 418 559 
559 418 417 20 111 160 559 
559 111 418 559 
559 418 111 20 417 424 164 138 160 559 
